10
19 42 24 28 26 29 45 36 7 3 
14 48 26 2 18 27 22 44 24 47 
13 31 2 11 41 29 31 33 12 25 
32 6 10 24 2 8 34 37 8 14 
14 48 26 37 33 2 36 11 40 29 
19 14 42 42 13 38 11 38 35 45 
48 31 38 9 34 23 13 50 34 17 
17 27 28 31 49 17 16 49 27 26 
32 23 38 41 46 7 27 7 3 49 
26 17 41 2 50 37 34 7 29 32 
